Welcome to the CBC MILP Solver 
Version: 2.10.12 
Build Date: Aug 20 2024 

command line - /opt/homebrew/bin/cbc computational_data/real_data/lp/wdbc_trial_015_margin.lp seconds 10.0 solve solu computational_data/real_data/solutions/wdbc_trial_015_margin.sol (default strategy 1)
 CoinLpIO::readLp(): Maximization problem reformulated as minimization
Coin0009I Switching back to maximization to get correct duals etc
seconds was changed from 1e+100 to 10
Continuous objective value is 110.23 - 0.00 seconds
Cgl0003I 1 fixed, 0 tightened bounds, 54 strengthened rows, 0 substitutions
Cgl0003I 0 fixed, 0 tightened bounds, 60 strengthened rows, 0 substitutions
Cgl0003I 0 fixed, 0 tightened bounds, 51 strengthened rows, 0 substitutions
Cgl0003I 0 fixed, 0 tightened bounds, 44 strengthened rows, 0 substitutions
Cgl0003I 0 fixed, 0 tightened bounds, 27 strengthened rows, 0 substitutions
Cgl0003I 0 fixed, 0 tightened bounds, 12 strengthened rows, 0 substitutions
Cgl0003I 0 fixed, 0 tightened bounds, 8 strengthened rows, 0 substitutions
Cgl0003I 0 fixed, 0 tightened bounds, 5 strengthened rows, 0 substitutions
Cgl0003I 0 fixed, 0 tightened bounds, 5 strengthened rows, 0 substitutions
Cgl0003I 0 fixed, 0 tightened bounds, 2 strengthened rows, 0 substitutions
Cgl0004I processed model has 67 rows, 41 columns (41 integer (40 of which binary)) and 710 elements
Cbc0038I Initial state - 17 integers unsatisfied sum - 5.55556
Cbc0038I Pass   1: suminf.    4.00000 (13) obj. 109.007 iterations 18
Cbc0038I Pass   2: suminf.    1.22222 (6) obj. 108.674 iterations 11
Cbc0038I Pass   3: suminf.    0.77778 (5) obj. 108.23 iterations 13
Cbc0038I Solution found of 104.007
Cbc0038I Cleaned solution of 104.007
Cbc0038I Before mini branch and bound, 21 integers at bound fixed and 0 continuous
Cbc0038I Full problem 67 rows 41 columns, reduced to 34 rows 18 columns
Cbc0038I Mini branch and bound did not improve solution (0.01 seconds)
Cbc0038I Round again with cutoff of 104.541
Cbc0038I Pass   4: suminf.    4.00000 (13) obj. 109.007 iterations 0
Cbc0038I Pass   5: suminf.    1.22222 (6) obj. 108.674 iterations 12
Cbc0038I Pass   6: suminf.    0.77778 (5) obj. 108.23 iterations 6
Cbc0038I Pass   7: suminf.    0.46665 (1) obj. 104.541 iterations 21
Cbc0038I Pass   8: suminf.    0.11111 (1) obj. 104.896 iterations 1
Cbc0038I Pass   9: suminf.    0.44444 (3) obj. 106.007 iterations 15
Cbc0038I Pass  10: suminf.    0.22222 (2) obj. 105.785 iterations 5
Cbc0038I Pass  11: suminf.    0.46665 (1) obj. 104.541 iterations 2
Cbc0038I Pass  12: suminf.    0.11111 (1) obj. 104.896 iterations 1
Cbc0038I Pass  13: suminf.    0.55556 (2) obj. 105.341 iterations 13
Cbc0038I Pass  14: suminf.    0.11111 (1) obj. 104.896 iterations 7
Cbc0038I Pass  15: suminf.    0.46665 (1) obj. 104.541 iterations 1
Cbc0038I Pass  16: suminf.    1.75556 (5) obj. 104.541 iterations 8
Cbc0038I Pass  17: suminf.    0.97779 (4) obj. 104.541 iterations 2
Cbc0038I Pass  18: suminf.    0.75557 (3) obj. 104.541 iterations 2
Cbc0038I Pass  19: suminf.    0.46665 (2) obj. 104.541 iterations 1
Cbc0038I Pass  20: suminf.    0.22222 (2) obj. 104.785 iterations 2
Cbc0038I Pass  21: suminf.    0.46665 (2) obj. 104.541 iterations 2
Cbc0038I Pass  22: suminf.    1.11111 (3) obj. 104.896 iterations 8
Cbc0038I Pass  23: suminf.    0.22222 (2) obj. 104.785 iterations 7
Cbc0038I Pass  24: suminf.    0.46665 (2) obj. 104.541 iterations 3
Cbc0038I Pass  25: suminf.    0.97779 (4) obj. 104.541 iterations 7
Cbc0038I Pass  26: suminf.    0.97779 (4) obj. 104.541 iterations 1
Cbc0038I Pass  27: suminf.    0.75557 (3) obj. 104.541 iterations 4
Cbc0038I Pass  28: suminf.    0.46665 (2) obj. 104.541 iterations 1
Cbc0038I Pass  29: suminf.    0.22222 (2) obj. 104.785 iterations 4
Cbc0038I Pass  30: suminf.    0.46665 (2) obj. 104.541 iterations 4
Cbc0038I Pass  31: suminf.    1.42225 (5) obj. 104.541 iterations 17
Cbc0038I Pass  32: suminf.    1.42225 (5) obj. 104.541 iterations 6
Cbc0038I Pass  33: suminf.    1.24441 (4) obj. 104.541 iterations 5
Cbc0038I No solution found this major pass
Cbc0038I Before mini branch and bound, 12 integers at bound fixed and 0 continuous
Cbc0038I Full problem 67 rows 41 columns, reduced to 48 rows 29 columns
Cbc0038I Mini branch and bound improved solution from 104.007 to 105.007 (0.02 seconds)
Cbc0038I Round again with cutoff of 105.874
Cbc0038I Pass  33: suminf.    4.00000 (13) obj. 109.007 iterations 0
Cbc0038I Pass  34: suminf.    1.22222 (6) obj. 108.674 iterations 12
Cbc0038I Pass  35: suminf.    0.77778 (5) obj. 108.23 iterations 6
Cbc0038I Pass  36: suminf.    0.31114 (3) obj. 105.874 iterations 21
Cbc0038I Pass  37: suminf.    0.31114 (3) obj. 105.874 iterations 4
Cbc0038I Pass  38: suminf.    1.02219 (3) obj. 105.874 iterations 1
Cbc0038I Pass  39: suminf.    1.02219 (5) obj. 105.874 iterations 9
Cbc0038I Pass  40: suminf.    0.53336 (4) obj. 105.874 iterations 3
Cbc0038I Pass  41: suminf.    1.31114 (5) obj. 105.874 iterations 5
Cbc0038I Pass  42: suminf.    1.31114 (5) obj. 105.874 iterations 2
Cbc0038I Pass  43: suminf.    1.08892 (4) obj. 105.874 iterations 4
Cbc0038I Pass  44: suminf.    0.31114 (3) obj. 105.874 iterations 4
Cbc0038I Pass  45: suminf.    0.31114 (3) obj. 105.874 iterations 2
Cbc0038I Pass  46: suminf.    1.02219 (3) obj. 105.874 iterations 1
Cbc0038I Pass  47: suminf.    0.75559 (3) obj. 105.874 iterations 8
Cbc0038I Pass  48: suminf.    0.75559 (3) obj. 105.874 iterations 2
Cbc0038I Pass  49: suminf.    0.31114 (3) obj. 105.874 iterations 2
Cbc0038I Pass  50: suminf.    0.31114 (3) obj. 105.874 iterations 0
Cbc0038I Pass  51: suminf.    1.02219 (3) obj. 105.874 iterations 1
Cbc0038I Pass  52: suminf.    1.02219 (3) obj. 105.874 iterations 6
Cbc0038I Pass  53: suminf.    1.42225 (5) obj. 105.874 iterations 14
Cbc0038I Pass  54: suminf.    1.13330 (4) obj. 105.874 iterations 4
Cbc0038I Pass  55: suminf.    0.88889 (4) obj. 106.118 iterations 1
Cbc0038I Pass  56: suminf.    1.02219 (4) obj. 105.874 iterations 8
Cbc0038I Pass  57: suminf.    0.31114 (3) obj. 105.874 iterations 3
Cbc0038I Pass  58: suminf.    1.02219 (3) obj. 105.874 iterations 4
Cbc0038I Pass  59: suminf.    1.02219 (4) obj. 105.874 iterations 9
Cbc0038I Pass  60: suminf.    0.31114 (3) obj. 105.874 iterations 7
Cbc0038I Pass  61: suminf.    1.02219 (3) obj. 105.874 iterations 3
Cbc0038I Pass  62: suminf.    1.91108 (6) obj. 105.874 iterations 13
Cbc0038I No solution found this major pass
Cbc0038I Before mini branch and bound, 15 integers at bound fixed and 0 continuous
Cbc0038I Full problem 67 rows 41 columns, reduced to 37 rows 25 columns
Cbc0038I Mini branch and bound did not improve solution (0.02 seconds)
Cbc0038I After 0.02 seconds - Feasibility pump exiting with objective of 105.007 - took 0.01 seconds
Cbc0012I Integer solution of 105.00737 found by feasibility pump after 0 iterations and 0 nodes (0.02 seconds)
Cbc0038I Full problem 67 rows 41 columns, reduced to 30 rows 16 columns
Cbc0031I 7 added rows had average density of 20.571429
Cbc0013I At root node, 13 cuts changed objective from 109.34073 to 105.00737 in 4 passes
Cbc0014I Cut generator 0 (Probing) - 2 row cuts average 2.0 elements, 0 column cuts (0 active)  in 0.000 seconds - new frequency is -100
Cbc0014I Cut generator 1 (Gomory) - 19 row cuts average 22.3 elements, 0 column cuts (0 active)  in 0.000 seconds - new frequency is 1
Cbc0014I Cut generator 2 (Knapsack) - 14 row cuts average 9.8 elements, 0 column cuts (0 active)  in 0.001 seconds - new frequency is 1
Cbc0014I Cut generator 3 (Clique) - 0 row cuts average 0.0 elements, 0 column cuts (0 active)  in 0.000 seconds - new frequency is -100
Cbc0014I Cut generator 4 (MixedIntegerRounding2) - 0 row cuts average 0.0 elements, 0 column cuts (0 active)  in 0.000 seconds - new frequency is -100
Cbc0014I Cut generator 5 (FlowCover) - 0 row cuts average 0.0 elements, 0 column cuts (0 active)  in 0.000 seconds - new frequency is -100
Cbc0014I Cut generator 6 (TwoMirCuts) - 23 row cuts average 21.0 elements, 0 column cuts (0 active)  in 0.000 seconds - new frequency is -100
Cbc0001I Search completed - best objective 105.007373, took 77 iterations and 0 nodes (0.03 seconds)
Cbc0035I Maximum depth 0, 8 variables fixed on reduced cost
Cuts at root node changed objective from 109.341 to 105.007
Probing was tried 4 times and created 2 cuts of which 0 were active after adding rounds of cuts (0.000 seconds)
Gomory was tried 4 times and created 19 cuts of which 0 were active after adding rounds of cuts (0.000 seconds)
Knapsack was tried 4 times and created 14 cuts of which 0 were active after adding rounds of cuts (0.001 seconds)
Clique was tried 4 times and created 0 cuts of which 0 were active after adding rounds of cuts (0.000 seconds)
MixedIntegerRounding2 was tried 4 times and created 0 cuts of which 0 were active after adding rounds of cuts (0.000 seconds)
FlowCover was tried 4 times and created 0 cuts of which 0 were active after adding rounds of cuts (0.000 seconds)
TwoMirCuts was tried 4 times and created 23 cuts of which 0 were active after adding rounds of cuts (0.000 seconds)
ZeroHalf was tried 1 times and created 0 cuts of which 0 were active after adding rounds of cuts (0.000 seconds)

Result - Optimal solution found

Objective value:                105.00737300
Enumerated nodes:               0
Total iterations:               77
Time (CPU seconds):             0.03
Time (Wallclock seconds):       0.03

Total time (CPU seconds):       0.03   (Wallclock seconds):       0.03

